p wcnf 112 224 225 
1 73 -63 0 
1 83 95 0 
1 65 -22 0 
1 96 -93 0 
1 -62 13 0 
1 51 90 0 
1 -91 -97 0 
1 -105 -37 0 
1 -65 -59 0 
1 -72 29 0 
1 -65 7 0 
1 53 -77 0 
1 -62 99 0 
1 92 52 0 
1 -103 5 0 
1 -82 78 0 
1 85 15 0 
1 -79 43 0 
1 41 -78 0 
1 55 -104 0 
1 31 103 0 
1 107 -109 0 
1 -11 -31 0 
1 -69 45 0 
1 -58 91 0 
1 -45 81 0 
1 7 105 0 
1 -60 105 0 
1 17 -88 0 
1 -91 -2 0 
1 -112 37 0 
1 71 -79 0 
1 -58 -86 0 
1 34 -54 0 
1 -41 -97 0 
1 10 -81 0 
1 -6 47 0 
1 -98 112 0 
1 -105 36 0 
1 89 -101 0 
1 103 3 0 
1 92 104 0 
1 43 -64 0 
1 -98 100 0 
1 -26 101 0 
1 93 -3 0 
1 72 -81 0 
1 47 -55 0 
1 19 -106 0 
1 -102 -99 0 
1 -76 54 0 
1 26 47 0 
1 -1 105 0 
1 -40 -98 0 
1 -95 -38 0 
1 7 71 0 
1 -37 34 0 
1 77 -63 0 
1 19 9 0 
1 -46 8 0 
1 37 -56 0 
1 34 -63 0 
1 -15 78 0 
1 39 -50 0 
1 -107 -105 0 
1 9 2 0 
1 38 61 0 
1 92 72 0 
1 34 45 0 
1 108 14 0 
1 -10 -32 0 
1 -96 34 0 
1 -2 24 0 
1 -38 60 0 
1 90 -11 0 
1 59 64 0 
1 -4 7 0 
1 -94 39 0 
1 77 78 0 
1 -80 -16 0 
1 5 99 0 
1 -32 112 0 
1 -32 29 0 
1 -110 -28 0 
1 -74 -56 0 
1 -100 97 0 
1 -67 -19 0 
1 51 60 0 
1 58 -15 0 
1 -41 90 0 
1 -48 -108 0 
1 -63 21 0 
1 46 100 0 
1 -16 -37 0 
1 91 46 0 
1 -2 -4 0 
1 -25 84 0 
1 -6 -45 0 
1 -57 -63 0 
1 38 -50 0 
1 -99 100 0 
1 -111 51 0 
1 -51 -102 0 
1 82 95 0 
1 -57 85 0 
1 -65 63 0 
1 71 -23 0 
1 -109 -79 0 
1 -46 -55 0 
1 -3 -46 0 
1 -44 -28 0 
1 70 110 0 
1 15 -35 0 
1 -58 -52 0 
1 -89 -77 0 
1 36 -21 0 
1 7 103 0 
1 -80 5 0 
1 15 -46 0 
1 100 -58 0 
1 90 -53 0 
1 108 -81 0 
1 -67 18 0 
1 -48 83 0 
1 21 11 0 
1 -55 -27 0 
1 94 16 0 
1 -7 -39 0 
1 63 4 0 
1 29 -66 0 
1 75 -104 0 
1 101 47 0 
1 -108 -32 0 
1 -18 11 0 
1 18 94 0 
1 -99 -48 0 
1 66 -58 0 
1 106 -72 0 
1 10 61 0 
1 -99 -38 0 
1 108 -4 0 
1 -104 77 0 
1 -6 88 0 
1 -64 89 0 
1 14 -85 0 
1 66 56 0 
1 -109 -84 0 
1 54 27 0 
1 -4 68 0 
1 91 -86 0 
1 3 49 0 
1 57 104 0 
1 -87 -7 0 
1 -108 63 0 
1 -45 91 0 
1 33 -111 0 
1 26 -109 0 
1 -72 44 0 
1 14 -66 0 
1 68 -54 0 
1 87 86 0 
1 -65 96 0 
1 -36 82 0 
1 46 -33 0 
1 104 -27 0 
1 -97 112 0 
1 61 -71 0 
1 -34 39 0 
1 -97 -6 0 
1 21 -8 0 
1 49 5 0 
1 -68 102 0 
1 91 105 0 
1 -9 -95 0 
1 29 -73 0 
1 21 -98 0 
1 -63 1 0 
1 -27 -66 0 
1 -70 35 0 
1 18 -82 0 
1 -84 26 0 
1 62 -76 0 
1 5 -61 0 
1 5 42 0 
1 78 -91 0 
1 -41 -99 0 
1 61 54 0 
1 -42 -44 0 
1 54 15 0 
1 49 -99 0 
1 38 -73 0 
1 50 -93 0 
1 -65 -102 0 
1 3 7 0 
1 46 -57 0 
1 -92 71 0 
1 23 -37 0 
1 -3 -90 0 
1 22 -23 0 
1 -79 -94 0 
1 -5 48 0 
1 -21 -1 0 
1 40 -12 0 
1 -24 -64 0 
1 -20 52 0 
1 -108 23 0 
1 35 38 0 
1 -84 10 0 
1 111 40 0 
1 -97 56 0 
1 47 -40 0 
1 46 -39 0 
1 48 -7 0 
1 -110 55 0 
1 -107 103 0 
1 17 76 0 
1 -24 20 0 
1 -39 2 0 
1 23 -41 0 
1 -106 86 0 
1 26 -60 0 
1 -35 83 0 
1 47 -77 0 
1 104 80 0 
